  50 

  31  48  21  34  15  14  42  32  38  31   8  11  12   8  44  22  16  37  12   7  10   6  29  49  16  29   7   3  44  30  16   9  45  22  41  22  43  28   5   8  32  35  50  47  42   9  14  23  46  13

 237

  12  15   3  17  10  11  15  18   6  11  17   9  15  24   7  12   3  23  22  13   5  20   1  23   9  22  22   6  11  23   9  13  24  24  16  17   4   8   5   5  14  18   5  25  20   3  15  25   1  20

